(set-logic ALL)
(set-option :produce-models true)
(declare-sort BoundSet 0)
(declare-sort UnboundSet 0)
(set-option :finite-model-find true)
(declare-fun IsInOvercoat (BoundSet) Bool)
(declare-fun IsPuttingOnGloves (BoundSet) Bool)
(declare-fun IsInSubwayStation (BoundSet) Bool)
(assert (not (=> (exists ((b BoundSet)) (and (IsInOvercoat b) (IsPuttingOnGloves b))) (exists ((c BoundSet)) (IsInSubwayStation c)))))
(check-sat)
(get-model)